
numDies = 20; % numero de dies
m = 1; % num linacs
s = 8; % num sessions per pacient
p = 15; % num pacients
tolerancia = 2; % diferencia maxima diaSesio i separacio
solicitud = 9; % dies maxims fins primera visita

disponible = [|  3,  3,  3,  4,  3, 19, 18, 26, 22, 12, 38, 35, 41, 39, 27, 49, 49, 49, 49, 49 |]; % capacitat de cada linac

duracio = [| 2, 2, 2, 2, 2, 2, 2, 2
            | 2, 2, 2, 2, 2, 3, 3, 3
            | 3, 3, 3, 3, 3, 2, 2, 2
            | 3, 3, 3, 3, 3, 2, 2, 2
            | 3, 3, 3, 3, 3, 2, 2, 2
            | 3, 3, 3, 3, 3, 2, 2, 2
            | 3, 3, 3, 3, 3, 2, 2, 2
            | 3, 3, 3, 3, 3, 2, 2, 2
            | 3, 3, 3, 3, 3, 2, 2, 2
            | 3, 3, 3, 3, 3, 2, 2, 2
            | 3, 3, 3, 3, 3, 3, 3, 3
            | 3, 3, 3, 3, 3, 3, 3, 3
            | 3, 3, 3, 3, 3, 3, 3, 3
            | 3, 3, 3, 3, 3, 3, 3, 3
            | 3, 3, 3, 3, 3, 3, 3, 3 |]; % duracion de la sesion (2 o 3 instants de temps)(30 o 45 mins)

separacio = [| 3, 1, 3, 1, 3, 1, 3
              | 3, 1, 3, 1, 3, 1, 3
              | 1, 2, 1, 2, 1, 2, 2
              | 1, 2, 1, 2, 1, 2, 2
              | 1, 2, 1, 2, 1, 2, 2
              | 1, 2, 1, 2, 1, 2, 2
              | 1, 2, 1, 2, 1, 2, 2
              | 3, 1, 3, 1, 3, 1, 3
              | 3, 1, 3, 1, 3, 1, 3
              | 3, 1, 3, 1, 3, 1, 3
              | 3, 1, 3, 1, 3, 1, 3
              | 1, 2, 1, 2, 1, 2, 2
              | 1, 2, 1, 2, 1, 2, 2
              | 1, 2, 1, 2, 1, 2, 2
              | 1, 2, 1, 2, 1, 2, 2 |]; % separacio ideal entre sesions 

grup = [1, 2, 3, 4, 4, 4, 5, 6, 6, 6, 6, 7, 7, 7, 8]; % pacients amb mateix grup son identics